webassembly/ejemplos_dzn/folder4_json_2.dzn
TERM = { '.', 's(2)', 's(5)', 's(4)', 's(1)', 's(0)', 's(3)', 'in_0'};
null = '.';
s = 4;
n = 9;
ndeps = 3;
max_registers_sz = 3;
NR = 0;
registers = [| |];
dependencies = [|'i32.load16_s_0', 'call[function_index(0)]_1', |'call[function_index(0)]_1', 'i32.load16_s_2', |'call[function_index(0)]_1', 'i32.load8_s_3'|];
GET_ENUM = { GET1, GET2, GET3};
SET_ENUM = { SET1, SET2, SET3};
TEE_ENUM = { TEE1, TEE2, TEE3};
N = 4;
OP = { 'call[function_index(0)]_1', 'i32.load16_s_0', 'i32.load16_s_2', 'i32.load8_s_3' };
in_ops = [0, 1, 1, 1 ];
out_ops = [3, 1, 1, 1 ];
in1 = ['.', 'in_0', 's(3)', 's(4)' ];
in2 = ['.', '.', '.', '.' ];
in3 = ['.', '.', '.', '.' ];
out1 = ['s(3)', 's(0)', 's(4)', 's(5)' ];
out2 = ['s(2)', '.', '.', '.' ];
out3 = ['s(1)', '.', '.', '.' ];
comm = [false, false, false, false ];
gas = [1, 1, 1, 1 ];
sz = [1, 1, 1, 1 ];
stor = [true, false, false, false ];
lb = [ 1, 1, 1, 1 ];
ub = [ 4, 4, 4, 4 ];
startstack = [ 'in_0', null, null, null, null, null, null, null, null ];
endstack = [ 's(5)', 's(2)', 's(1)', 's(0)', null, null, null, null, null ];
